NAME : tsp50_25.231.tour
COMMENT : Length = 231
COMMENT : Found by LKH [Keld Helsgaun]
TYPE : TOUR
DIMENSION : 50
TOUR_SECTION
1
27
46
5
20
3
6
37
7
36
9
2
8
44
22
30
40
38
19
35
4
31
39
18
10
32
45
34
47
49
15
14
26
29
41
33
11
12
42
50
16
24
17
23
28
25
21
13
48
43
-1
EOF
